p edge 110 638
v 1 8
v 2 2
v 3 4
v 4 7
v 5 10
v 6 4
v 7 10
v 8 8
v 9 3
v 10 3
v 11 9
v 12 7
v 13 6
v 14 10
v 15 6
v 16 7
v 17 7
v 18 5
v 19 4
v 20 1
v 21 5
v 22 2
v 23 5
v 24 6
v 25 1
v 26 10
v 27 10
v 28 5
v 29 9
v 30 7
v 31 9
v 32 7
v 33 8
v 34 3
v 35 3
v 36 8
v 37 6
v 38 2
v 39 5
v 40 8
v 41 5
v 42 4
v 43 5
v 44 10
v 45 3
v 46 1
v 47 6
v 48 10
v 49 6
v 50 9
v 51 1
v 52 10
v 53 10
v 54 5
v 55 5
v 56 10
v 57 4
v 58 5
v 59 5
v 60 3
v 61 1
v 62 3
v 63 9
v 64 8
v 65 6
v 66 2
v 67 6
v 68 1
v 69 3
v 70 10
v 71 9
v 72 7
v 73 3
v 74 4
v 75 7
v 76 6
v 77 4
v 78 2
v 79 6
v 80 9
v 81 1
v 82 6
v 83 9
v 84 10
v 85 10
v 86 3
v 87 10
v 88 4
v 89 7
v 90 5
v 91 6
v 92 8
v 93 8
v 94 5
v 95 5
v 96 3
v 97 6
v 98 10
v 99 3
v 100 9
v 101 10
v 102 2
v 103 6
v 104 3
v 105 5
v 106 2
v 107 9
v 108 8
v 109 3
v 110 4
e 1 2
e 1 3
e 1 51
e 1 64
e 1 84
e 1 97
e 1 99
e 2 3
e 2 23
e 2 30
e 2 45
e 2 51
e 2 64
e 2 72
e 2 84
e 2 95
e 2 97
e 2 104
e 3 23
e 3 25
e 3 30
e 3 45
e 3 51
e 3 64
e 3 72
e 3 84
e 3 95
e 3 97
e 3 104
e 4 6
e 4 7
e 4 12
e 4 18
e 4 27
e 4 74
e 4 86
e 4 102
e 4 107
e 5 15
e 5 21
e 5 52
e 5 53
e 5 61
e 5 68
e 5 70
e 5 75
e 5 88
e 5 94
e 5 96
e 6 7
e 6 12
e 6 18
e 6 27
e 6 74
e 6 86
e 6 102
e 6 107
e 7 12
e 7 18
e 7 27
e 7 43
e 7 57
e 7 59
e 7 63
e 7 65
e 7 74
e 7 86
e 7 102
e 7 103
e 7 107
e 8 13
e 8 21
e 8 29
e 8 46
e 8 52
e 8 53
e 8 61
e 8 68
e 8 76
e 8 80
e 8 81
e 8 92
e 8 96
e 8 100
e 9 10
e 9 35
e 9 38
e 9 50
e 9 60
e 9 67
e 9 88
e 9 91
e 10 36
e 10 38
e 10 47
e 10 50
e 10 60
e 10 66
e 10 79
e 10 91
e 11 22
e 11 24
e 11 49
e 11 56
e 11 69
e 11 73
e 11 83
e 11 85
e 11 87
e 11 89
e 11 93
e 12 18
e 12 27
e 12 65
e 12 74
e 12 102
e 12 107
e 13 17
e 13 29
e 13 31
e 13 42
e 13 46
e 13 52
e 13 53
e 13 68
e 13 77
e 13 80
e 13 81
e 13 92
e 13 100
e 13 101
e 14 19
e 14 20
e 14 24
e 14 25
e 14 26
e 14 44
e 14 58
e 14 67
e 14 79
e 14 98
e 14 106
e 14 110
e 15 21
e 15 33
e 15 35
e 15 52
e 15 61
e 15 68
e 15 70
e 15 75
e 15 88
e 15 94
e 15 96
e 15 101
e 16 28
e 16 31
e 16 33
e 16 34
e 16 37
e 16 39
e 16 42
e 16 48
e 16 54
e 16 62
e 16 63
e 16 77
e 16 78
e 16 85
e 16 93
e 16 101
e 16 108
e 17 29
e 17 31
e 17 32
e 17 41
e 17 46
e 17 77
e 17 80
e 17 81
e 17 90
e 17 92
e 17 100
e 18 27
e 18 59
e 18 65
e 18 74
e 18 82
e 18 102
e 18 105
e 18 107
e 19 20
e 19 47
e 19 50
e 19 58
e 19 66
e 19 79
e 19 98
e 19 106
e 20 25
e 20 30
e 20 44
e 20 58
e 20 79
e 20 98
e 20 104
e 20 106
e 21 52
e 21 53
e 21 61
e 21 68
e 21 70
e 21 75
e 21 88
e 21 96
e 22 28
e 22 43
e 22 48
e 22 49
e 22 56
e 22 59
e 22 63
e 22 65
e 22 69
e 22 83
e 22 85
e 22 87
e 22 89
e 22 93
e 23 24
e 23 25
e 23 30
e 23 45
e 23 64
e 23 72
e 23 73
e 23 95
e 23 97
e 23 104
e 24 25
e 24 44
e 24 45
e 24 49
e 24 72
e 24 73
e 24 89
e 25 30
e 25 44
e 25 45
e 25 58
e 25 64
e 25 72
e 25 95
e 25 104
e 26 35
e 26 44
e 26 67
e 26 79
e 26 94
e 26 106
e 26 110
e 27 59
e 27 65
e 27 74
e 27 82
e 27 86
e 27 102
e 27 107
e 28 34
e 28 37
e 28 39
e 28 43
e 28 48
e 28 54
e 28 56
e 28 62
e 28 63
e 28 69
e 28 78
e 28 85
e 28 93
e 28 108
e 29 31
e 29 32
e 29 46
e 29 53
e 29 76
e 29 77
e 29 80
e 29 81
e 29 90
e 29 92
e 29 100
e 30 45
e 30 58
e 30 64
e 30 72
e 30 95
e 30 97
e 30 104
e 31 37
e 31 42
e 31 52
e 31 53
e 31 68
e 31 77
e 31 80
e 31 81
e 31 100
e 31 101
e 32 37
e 32 39
e 32 41
e 32 54
e 32 62
e 32 77
e 32 80
e 33 42
e 33 48
e 33 75
e 33 78
e 33 85
e 33 94
e 33 101
e 33 108
e 33 110
e 34 37
e 34 39
e 34 42
e 34 43
e 34 48
e 34 54
e 34 62
e 34 63
e 34 69
e 34 78
e 34 85
e 34 93
e 34 108
e 35 38
e 35 67
e 35 70
e 35 75
e 35 88
e 35 94
e 35 106
e 35 110
e 36 38
e 36 47
e 36 50
e 36 60
e 36 66
e 36 79
e 36 91
e 36 98
e 37 39
e 37 41
e 37 42
e 37 48
e 37 54
e 37 62
e 37 63
e 37 77
e 37 93
e 38 47
e 38 50
e 38 60
e 38 91
e 39 41
e 39 54
e 39 62
e 39 63
e 39 103
e 40 55
e 40 71
e 40 73
e 40 82
e 40 83
e 40 89
e 40 99
e 40 105
e 40 109
e 41 54
e 41 62
e 41 77
e 42 48
e 42 52
e 42 53
e 42 54
e 42 62
e 42 77
e 42 78
e 42 80
e 42 81
e 42 100
e 42 101
e 43 54
e 43 56
e 43 57
e 43 59
e 43 63
e 43 65
e 43 69
e 43 85
e 43 93
e 43 103
e 44 58
e 44 67
e 44 79
e 44 98
e 44 106
e 44 110
e 45 55
e 45 64
e 45 72
e 45 73
e 45 95
e 45 97
e 45 104
e 46 76
e 46 80
e 46 81
e 46 90
e 46 92
e 46 100
e 47 50
e 47 60
e 47 66
e 47 79
e 47 91
e 47 98
e 48 69
e 48 78
e 48 85
e 48 93
e 48 101
e 48 108
e 49 55
e 49 56
e 49 59
e 49 69
e 49 73
e 49 82
e 49 83
e 49 87
e 49 89
e 50 60
e 50 66
e 50 79
e 50 91
e 50 98
e 51 64
e 51 84
e 51 95
e 51 97
e 51 99
e 52 53
e 52 61
e 52 68
e 52 70
e 52 75
e 52 77
e 52 80
e 52 81
e 52 94
e 52 96
e 52 100
e 52 101
e 53 61
e 53 68
e 53 70
e 53 75
e 53 77
e 53 80
e 53 81
e 53 96
e 53 100
e 53 101
e 54 62
e 54 63
e 54 77
e 54 93
e 55 71
e 55 73
e 55 82
e 55 83
e 55 87
e 55 89
e 55 99
e 56 57
e 56 59
e 56 63
e 56 65
e 56 69
e 56 83
e 56 85
e 56 87
e 56 89
e 56 93
e 57 59
e 57 63
e 57 65
e 57 103
e 58 79
e 58 98
e 58 104
e 59 63
e 59 65
e 59 69
e 59 82
e 59 83
e 59 87
e 59 93
e 60 66
e 60 91
e 61 68
e 61 70
e 61 75
e 61 88
e 61 94
e 61 96
e 62 63
e 62 77
e 63 93
e 63 103
e 64 72
e 64 84
e 64 95
e 64 97
e 64 104
e 65 71
e 65 74
e 65 82
e 65 83
e 65 87
e 65 105
e 66 79
e 66 91
e 66 98
e 66 106
e 67 79
e 67 98
e 67 106
e 67 110
e 68 70
e 68 75
e 68 88
e 68 96
e 68 100
e 69 78
e 69 85
e 69 87
e 69 89
e 69 93
e 69 108
e 70 75
e 70 88
e 70 94
e 70 96
e 71 82
e 71 83
e 71 87
e 71 89
e 71 105
e 71 109
e 72 73
e 72 95
e 72 104
e 73 83
e 73 87
e 73 89
e 73 99
e 74 86
e 74 102
e 74 107
e 75 88
e 75 94
e 75 96
e 75 101
e 76 81
e 76 90
e 76 92
e 77 80
e 77 81
e 77 92
e 77 100
e 78 85
e 78 93
e 78 101
e 78 108
e 79 98
e 79 106
e 79 110
e 80 81
e 80 90
e 80 92
e 80 100
e 81 90
e 81 92
e 81 100
e 82 83
e 82 87
e 82 89
e 82 105
e 82 109
e 83 87
e 83 89
e 83 105
e 83 109
e 84 97
e 85 93
e 85 108
e 86 102
e 86 107
e 87 89
e 87 105
e 87 109
e 88 94
e 88 96
e 89 99
e 90 92
e 92 100
e 93 108
e 94 101
e 94 108
e 94 110
e 95 97
e 95 104
e 96 100
e 97 99
e 97 104
e 98 106
e 100 101
e 101 108
e 102 103
e 102 107
e 105 109
e 106 110
